solution status: optimal solution found
objective value:                     161694.046918371
d11(0,0)                                            1 	(obj:0)
d11(1,1)                                            1 	(obj:0)
d11(1,2)                                            1 	(obj:0)
d11(2,3)                                            1 	(obj:0)
d11(2,5)                                            1 	(obj:0)
d11(2,6)                                            1 	(obj:0)
d11(3,7)                                            1 	(obj:0)
d11(3,8)                                            1 	(obj:0)
d11(3,9)                                            1 	(obj:0)
d11(3,10)                                           1 	(obj:0)
d11(3,11)                                           1 	(obj:0)
d11(3,12)                                           1 	(obj:0)
d11(3,13)                                           1 	(obj:0)
d11(4,15)                                           1 	(obj:0)
d11(4,17)                                           1 	(obj:0)
d11(4,21)                                           1 	(obj:0)
d11(4,23)                                           1 	(obj:0)
d11(4,25)                                           1 	(obj:0)
d11(4,29)                                           1 	(obj:0)
d12(4,16)                                           1 	(obj:0)
d12(4,18)                                           1 	(obj:0)
d12(4,20)                                           1 	(obj:0)
d12(4,22)                                           1 	(obj:0)
d12(4,24)                                           1 	(obj:0)
d12(4,26)                                           1 	(obj:0)
d12(4,28)                                           1 	(obj:0)
d12(4,30)                                           1 	(obj:0)
d21(2,3)                                            1 	(obj:0)
d21(3,7)                                            1 	(obj:0)
d21(3,8)                                            1 	(obj:0)
d21(3,9)                                            1 	(obj:0)
d21(3,11)                                           1 	(obj:0)
d21(4,15)                                           1 	(obj:0)
d21(4,16)                                           1 	(obj:0)
d21(4,17)                                           1 	(obj:0)
d21(4,18)                                           1 	(obj:0)
d21(4,19)                                           1 	(obj:0)
d21(4,20)                                           1 	(obj:0)
d21(4,23)                                           1 	(obj:0)
d21(4,24)                                           1 	(obj:0)
y2(4,16)                             1385.48851144895 	(obj:0)
y2(4,18)                             1385.48851144896 	(obj:0)
y2(4,20)                             1385.48851144895 	(obj:0)
y2(4,22)                             1385.48851144895 	(obj:0)
y2(4,24)                             1385.48851144895 	(obj:0)
y2(4,26)                             1385.48851144895 	(obj:0)
y2(4,28)                             1385.48851144895 	(obj:0)
y2(4,30)                             1385.48851144895 	(obj:0)
STE(1,1)                                    6048.0002 	(obj:0)
STE(0,0)                                         9450 	(obj:0)
STE(1,2)                             7706.25009888882 	(obj:0)
STE(2,3)                             3633.75030111115 	(obj:0)
STE(2,4)                                    5292.0002 	(obj:0)
STE(2,5)                             5292.00019999997 	(obj:0)
STE(2,6)                             6950.25009888882 	(obj:0)
STE(3,7)                             1219.50040222234 	(obj:0)
STE(3,8)                             2877.75030111115 	(obj:0)
STE(3,9)                             2877.75030111118 	(obj:0)
STE(3,10)                                   4536.0002 	(obj:0)
STE(3,11)                            2877.75030111115 	(obj:0)
STE(3,12)                            4536.00019999997 	(obj:0)
STE(3,13)                                   4536.0002 	(obj:0)
STE(3,14)                            6194.25009888882 	(obj:0)
STE(4,15)                            463.500402222337 	(obj:0)
STE(4,16)                            1779.71448809884 	(obj:0)
STE(4,17)                            2121.75030111115 	(obj:0)
STE(4,18)                            3437.96438698767 	(obj:0)
STE(4,19)                            2121.75030111118 	(obj:0)
STE(4,20)                            3437.96438698769 	(obj:0)
STE(4,21)                                   3780.0002 	(obj:0)
STE(4,22)                            5096.21428587651 	(obj:0)
STE(4,23)                            2121.75030111115 	(obj:0)
STE(4,24)                            3437.96438698766 	(obj:0)
STE(4,25)                            3780.00019999997 	(obj:0)
STE(4,26)                            5096.21428587648 	(obj:0)
STE(4,27)                                   3780.0002 	(obj:0)
STE(4,28)                            5096.21428587651 	(obj:0)
STE(4,29)                            5438.25009888882 	(obj:0)
STE(4,30)                            6754.46418476532 	(obj:0)
y1(3,11)                             1492.42490899994 	(obj:0)
y1(3,13)                             1492.42490899994 	(obj:0)
AVE(1)                               3265.91696791192 	(obj:0)
AVE(2)                               3332.74178563731 	(obj:0)
WB(3)                                3444.11697932125 	(obj:0)
AVE(3)                               3444.11697932125 	(obj:0)
WB(4)                                 726.15517216227 	(obj:0)
AVE(4)                               3399.56511093778 	(obj:0)
WG(1)                                3265.91696791192 	(obj:10)
WG(2)                                3332.74178563731 	(obj:10)
WG(4)                                2673.40993877551 	(obj:10)
BG(1)                                1837.49278719016 	(obj:10)
BG(2)                                863.550713342282 	(obj:10)
BG(3)                                4196.29249897957 	(obj:10)
y1(1,1)                                    2381.39982 	(obj:0)
y1(1,2)                              888.974911000064 	(obj:0)
y1(2,3)                              1492.42490899996 	(obj:0)
y1(2,5)                              1492.42490899996 	(obj:0)
y1(3,7)                              1492.42490899994 	(obj:0)
y1(3,9)                              1492.42490899994 	(obj:0)
